sat
(model 
  (define-fun inv ((x!0 Int)) Bool
    (let ((a!1 (ite (<= 9 x!0)
                    (ite (<= 10 x!0) (ite (<= 11 x!0) 11 10) 9)
                    (- 9))))
      (or (= (ite (<= (- 9) x!0) a!1 (- 10)) 10)
          (= (ite (<= (- 9) x!0) a!1 (- 10)) 9)
          (= (ite (<= (- 9) x!0) a!1 (- 10)) (- 9)))))
)
